\ This file has been generated by DOcplex
\ ENCODING=ISO-8859-1
\Problem name: random_problem.lp

Minimize
 obj: 83 x0 + 88 x1 + 10 x2 + 17 x3 + 54 x4 + 34 x5 + 67 x6 + 38 x7 + 24 x8
      + 18 x9 + 31 x10 + 2 x11 + 21 x12 + 21 x13 + 12 x14 + 5 x15 + 25 x16
      + 36 x17 + 6 x18 + 83 x19 + 40 x20 + 81 x21 + 44 x22 + 46 x23 + 86 x24
Subject To
 c0: x6 + x9 = 1
 c1: x2 + x3 + x6 + x16 + x19 + x24 = 1
 c2: x4 + x5 + x9 + x10 + x17 + x24 = 1
 c3: x0 + x1 + x4 + x7 + x8 = 1
 c4: x2 + x9 + x11 + x12 + x14 + x17 + x18 + x21 = 1
 c5: x3 + x13 + x15 + x19 + x20 + x23 + x24 = 1
 c6: x12 + x13 = 1
 c7: x10 + x22 = 1

Bounds
 0 <= x0 <= 1
 0 <= x1 <= 1
 0 <= x2 <= 1
 0 <= x3 <= 1
 0 <= x4 <= 1
 0 <= x5 <= 1
 0 <= x6 <= 1
 0 <= x7 <= 1
 0 <= x8 <= 1
 0 <= x9 <= 1
 0 <= x10 <= 1
 0 <= x11 <= 1
 0 <= x12 <= 1
 0 <= x13 <= 1
 0 <= x14 <= 1
 0 <= x15 <= 1
 0 <= x16 <= 1
 0 <= x17 <= 1
 0 <= x18 <= 1
 0 <= x19 <= 1
 0 <= x20 <= 1
 0 <= x21 <= 1
 0 <= x22 <= 1
 0 <= x23 <= 1
 0 <= x24 <= 1

Binaries
 x0 x1 x2 x3 x4 x5 x6 x7 x8 x9 x10 x11 x12 x13 x14 x15 x16 x17 x18 x19 x20 x21
 x22 x23 x24
End
